data;

set A := 245 16 376 921 545 407 60 476 417 232 138 810 976 853 946 369 204 260 680 525 731 629 174 691 784 435 892 730 444 736 226 850 775 970 754 526 718 227 563 292 826 595 872 523 980 555 582 105 591 955 472 627 894 514 193 482 81 941 738 726 902 550 487 442 66 489 318 524 534 178 538 320;
param T := 18000;

end;
